% demand
num_movements = 49;
loading_factor = [1200, 1050, 950, 850, 1100, 850, 1650, 1000, 1200, 1150, 850, 1300, 1900, 1350, 1100, 1650, 1750, 1000, 1450, 1950, 1800, 1350, 1350, 1000, 1100, 1750, 1100, 1450, 1850, 950, 950, 1850, 1200, 1350, 950, 1550, 1450, 1800, 1750, 950, 1500, 1450, 1050, 900, 1950, 1950, 1600, 1600, 1350];
pickup_time = [0, 0, 0, 0, 0, 0, 0, 0, 0, 1, 1, 1, 1, 1, 1, 3, 3, 3, 3, 3, 5, 5, 5, 5, 5, 6, 7, 7, 7, 7, 7, 7, 7, 8, 8, 8, 8, 8, 8, 8, 9, 9, 9, 10, 10, 10, 11, 11, 11];
delivery_time = [1, 4, 2, 1, 1, 1, 1, 4, 1, 3, 3, 3, 3, 3, 4, 4, 5, 4, 4, 5, 7, 6, 7, 7, 8, 7, 8, 8, 8, 8, 8, 8, 8, 9, 10, 10, 11, 11, 9, 10, 12, 10, 12, 11, 12, 12, 12, 12, 12];

% transporter definition
total_capacity = 11000;
num_decks = 4;
capacity = [3000, 3000, 1000, 4000];

% ways out of decks
num_ways_out = 2;
paths_out = array3d(decks, ways_out, decks, [
% ways out of deck d1
2, 4, 0, 0, 3, 4, 0, 0, 

% ways out of deck d2
4, 0, 0, 0, 0, 0, 0, 0,	

% ways out of deck d3
4, 0, 0, 0, 0, 0, 0, 0,	

% ways out of deck d4
0, 0, 0, 0,	0, 0, 0, 0,	

]);

